(declare-fun syscall_stub_readlink_517_64 () (_ BitVec 64))
(assert (and (= #b0 ((_ extract 63 63) syscall_stub_readlink_517_64))
     (not (bvsle #x00000000000003ff syscall_stub_readlink_517_64))))
(define-fun goal () (_ BitVec 64) (bvadd #x07fffffffffe62a0 syscall_stub_readlink_517_64)) 
(maximize goal)
(check-sat)